%%%mzn-stat: initTime=0.008478254
%%%mzn-stat: objective=916
%%%mzn-stat: nodes=45495
%%%mzn-stat: restarts=50
%%%mzn-stat: peakDepth=398
%%%mzn-stat: solveTime=4.149704206
%%%mzn-stat: variables=816
%%%mzn-stat: propagators=576
%%%mzn-stat: failures=18484
%%%mzn-stat: propagations=797476
%%%mzn-stat: nogoods=18484
%%%mzn-stat: AverageConflictSize=19.58320709803073
%%%mzn-stat: NumUnitNogoodsLearned=243
%%%mzn-stat: AverageLearnedNogoodLength=32.229766284354035
%%%mzn-stat: AverageBacktrackAmount=0
%%%mzn-stat: AverageLbd=14.906730144990261
%%%mzn-stat-end
maxleg = 916;
succ = array1d(1..50,[17, 4, 36, 15, 2, 28, 38, 21, 16, 37, 27, 32, 20, 47, 39, 1, 31, 3, 10, 14, 18, 34, 42, 30, 5, 11, 8, 35, 9, 19, 26, 43, 24, 44, 7, 50, 23, 22, 48, 6, 33, 13, 25, 45, 29, 49, 12, 40, 41, 46]);
% time elapsed: 5.71 s
----------
%%%mzn-stat: initTime=0.008478254
%%%mzn-stat: objective=311
%%%mzn-stat: nodes=49539
%%%mzn-stat: restarts=60
%%%mzn-stat: peakDepth=398
%%%mzn-stat: solveTime=4.377273082
%%%mzn-stat: variables=816
%%%mzn-stat: propagators=576
%%%mzn-stat: failures=19102
%%%mzn-stat: propagations=837349
%%%mzn-stat: nogoods=19102
%%%mzn-stat: AverageConflictSize=19.715893623704325
%%%mzn-stat: NumUnitNogoodsLearned=243
%%%mzn-stat: AverageLearnedNogoodLength=32.4424667574076
%%%mzn-stat: AverageBacktrackAmount=0
%%%mzn-stat: AverageLbd=15.157313370327714
%%%mzn-stat-end
maxleg = 311;
succ = array1d(1..50,[30, 4, 36, 15, 2, 28, 35, 21, 16, 37, 27, 32, 7, 47, 39, 1, 31, 3, 10, 13, 18, 14, 20, 29, 5, 11, 8, 42, 9, 19, 26, 43, 24, 44, 45, 50, 23, 22, 48, 6, 33, 17, 25, 38, 34, 49, 12, 40, 41, 46]);
% time elapsed: 5.93 s
----------
%%%mzn-stat: initTime=0.008478254
%%%mzn-stat: objective=309
%%%mzn-stat: nodes=50168
%%%mzn-stat: restarts=62
%%%mzn-stat: peakDepth=398
%%%mzn-stat: solveTime=4.403252546
%%%mzn-stat: variables=816
%%%mzn-stat: propagators=576
%%%mzn-stat: failures=19171
%%%mzn-stat: propagations=842175
%%%mzn-stat: nogoods=19171
%%%mzn-stat: AverageConflictSize=19.75009128370977
%%%mzn-stat: NumUnitNogoodsLearned=243
%%%mzn-stat: AverageLearnedNogoodLength=32.48724636169214
%%%mzn-stat: AverageBacktrackAmount=0
%%%mzn-stat: AverageLbd=15.197642272181941
%%%mzn-stat-end
maxleg = 309;
succ = array1d(1..50,[33, 4, 36, 15, 2, 28, 35, 21, 16, 37, 27, 32, 7, 47, 39, 1, 31, 3, 10, 13, 18, 14, 20, 29, 5, 11, 8, 42, 41, 19, 26, 43, 24, 44, 45, 50, 23, 22, 48, 6, 30, 17, 25, 38, 34, 49, 12, 40, 9, 46]);
% time elapsed: 5.96 s
----------
==========
% time elapsed: 6.72 s
%%%mzn-stat: initTime=0.008478254
%%%mzn-stat: objective=309
%%%mzn-stat: nodes=56756
%%%mzn-stat: restarts=62
%%%mzn-stat: peakDepth=398
%%%mzn-stat: solveTime=5.157959814
%%%mzn-stat: variables=816
%%%mzn-stat: propagators=576
%%%mzn-stat: failures=24087
%%%mzn-stat: propagations=956400
%%%mzn-stat: nogoods=24087
%%%mzn-stat: AverageConflictSize=17.57433470336696
%%%mzn-stat: NumUnitNogoodsLearned=244
%%%mzn-stat: AverageLearnedNogoodLength=29.93257773902935
%%%mzn-stat: AverageBacktrackAmount=0
%%%mzn-stat: AverageLbd=13.647942873749326
%%%mzn-stat-end
